%%% static parameters %%%
timespan = 1;
Fact = [2];
Distr1 = [5];
Distr2 = [10];
Clients_N = [100];
Demand_W = [15];
Lt0 = [4];
Lt1 = [4];
SS_ = [0.85];
DS_D = [8];
K = [200];
MA = [500];
%%% dynamic parameters %%%
lost_ratio_sales_ret_th = 0.35172203657949996;
lost_ratio_sales_ret_w = 60;
lost_ratio_sales_dis_th = 0.8213076838206476;
lost_ratio_sales_dis_w = 45;
lost_ratio_sales_fac_th = 0.003011943721781596;
lost_ratio_sales_fac_w = 53;
stock_customer_MA_mean_relative_th = 0.9890695915512054;
stock_customer_MA_mean_relative_w = 71;
stock_distributor_MA_mean_relative_th = 0.3087058298496752;
stock_distributor_MA_mean_relative_w = 69;
stock_retailer_MA_mean_relative_th = 0.10736849989408914;
stock_retailer_MA_mean_relative_w = 97;
stock_factory_MA_mean_relative_th = 0.0011515494075821087;
stock_factory_MA_mean_relative_w = 9;
